LAMMPS (10 Aug 2015)
units		real
atom_style	hybrid angle dipole sphere
read_data 	data.4dopc4dope256wat
  orthogonal box = (-8.5 -8.5 -31.5) to (8.5 8.5 31.5)
  1 by 1 by 1 MPI processor grid
  reading atoms ...
  376 atoms
  scanning bonds ...
  2 = max bonds/atom
  scanning angles ...
  2 = max angles/atom
  reading bonds ...
  112 bonds
  reading angles ...
  128 angles
  3 = max # of 1-2 neighbors
  3 = max # of 1-3 neighbors
  6 = max # of 1-4 neighbors
  8 = max # of special neighbors
include 	forcefield.elba
pair_style lj/sf/dipole/sf 12.0
special_bonds lj/coul 0.0 1.0 1.0
  3 = max # of 1-2 neighbors
  3 = max # of special neighbors
bond_style harmonic
angle_style hybrid cosine/squared dipole

mass    1   40.000
mass    2   90.000
mass    3   90.000
mass    4   62.000
mass    5   62.000
mass    6   42.000
mass    7   42.000

set type 1 diameter 5.0 # wat dipole
  256 settings made for diameter
set type 4 diameter 12.7 # gly dipole
  8 settings made for diameter
set type 5 diameter 12.7 # est dipole
  16 settings made for diameter

pair_coeff    1    1	  0.550  3.050 # wat-wat
pair_coeff    1    2	  0.725  4.225 # wat-cho
pair_coeff    1    3	  0.943  4.125 # wat-pho
pair_coeff    1    4	  0.651  3.825 # wat-gly
pair_coeff    1    5	  0.710  3.825 # wat-est
pair_coeff    1    6	  0.554  3.775 # wat-tail
pair_coeff    1    7	  0.609  3.775 # wat-ami
pair_coeff    2    2	  1.434  5.400 # cho-cho
pair_coeff    2    3	  1.434  5.300 # cho-pho
pair_coeff    2    4	  1.171  5.000 # cho-gly
pair_coeff    2    5	  1.171  5.000 # cho-est
pair_coeff    2    6	  1.095  4.950 # cho-tail
pair_coeff    2    7	  1.095  4.950 # cho-ami
pair_coeff    3    3	  1.434  5.200 # pho-pho
pair_coeff    3    4	  1.171  4.900 # pho-gly
pair_coeff    3    5	  1.171  4.900 # pho-est
pair_coeff    3    6	  1.095  4.850 # pho-tail
pair_coeff    3    7	  1.424  4.850 # pho-ami
pair_coeff    4    4	  0.956  4.600 # gly-gly
pair_coeff    4    5	  0.956  4.600 # gly-est
pair_coeff    4    6	  0.894  4.550 # gly-tail
pair_coeff    4    7	  0.984  4.550 # gly-ami
pair_coeff    5    5	  0.956  4.600 # est-est
pair_coeff    5    6	  0.894  4.550 # est-tail
pair_coeff    5    7	  1.163  4.550 # est-ami
pair_coeff    6    6	  0.837  4.500 # tail-tail
pair_coeff    6    7	  0.837  4.500 # tail-ami
pair_coeff    7    7	  0.837  4.500 # ami-ami

bond_coeff    1    1.506  4.770 # cho-pho
bond_coeff    2    1.506  4.410 # pho-gly
bond_coeff    3    1.506  4.140 # gly-est
bond_coeff    4    1.506  4.095 # est-tail
bond_coeff    5    1.506  4.050 # tail-tail
bond_coeff    6    1.506  4.365 # ami-pho

angle_coeff    1  cosine/squared   3.585  115.00
angle_coeff    2  cosine/squared   3.585   90.00
angle_coeff    3  cosine/squared   3.585  180.00
angle_coeff    4  cosine/squared   3.585  120.00
angle_coeff    5  dipole           1.195    0.00


replicate	4 4 1
  orthogonal box = (-8.5 -8.5 -31.5) to (59.5 59.5 31.5)
  1 by 1 by 1 MPI processor grid
  6016 atoms
  1792 bonds
  2048 angles
  3 = max # of 1-2 neighbors
  3 = max # of special neighbors

velocity	all create 0.0 87287

variable	nLips equal 128 # total number of lipids
variable	nWats equal 4096 # total number of waters
variable	watVol equal 30.0 # water molecular volume (~30 A^3)
variable	atmA__in__mN_m equal 0.01013 # 1 atm*A = 0.01013 mN/m

variable	Nnvt equal 1000
variable	Nnpt equal 100000
variable	Nthe equal 10000
variable	Ndum equal 10000
variable	Ne equal 10
variable	Nthe_e equal ${Nthe}/${Ne}
variable	Nthe_e equal 10000/${Ne}
variable	Nthe_e equal 10000/10
variable	Nres equal 110000

group		lip type 2 3 4 5 6 7
1920 atoms in group lip
group		head type 2 3 7
256 atoms in group head
group		wat type 1
4096 atoms in group wat
group		chol type 2
64 atoms in group chol
group		phos type 3
128 atoms in group phos
group		gly type 4
128 atoms in group gly
group		est type 5
256 atoms in group est
group		tail type 6
1280 atoms in group tail
group		ami type 7
64 atoms in group ami

neighbor	1 bin
neigh_modify	delay 0
fix		integrate all nve/sphere update dipole

fix 		thermo all langevin 303 303 100 9 omega yes zero yes

fix             removeMomentum all momentum 100 linear 1 1 1 # angular

dump		trj all custom ${Ndum} dump.*.trj id type mol x y z mux muy muz
dump		trj all custom 10000 dump.*.trj id type mol x y z mux muy muz
dump_modify	trj sort id pad 9

timestep	0.01
run		${Nnvt}
run		1000
Neighbor list info ...
  1 neighbor list requests
  update every 1 steps, delay 0 steps, check yes
  master list distance cutoff = 13
  ghost atom cutoff = 13
Memory usage per processor = 14.6612 Mbytes
Step Temp E_pair E_mol TotEng Press 
       0            0    1224661.1    12447.942      1237109      1257067 
    1000    189.40229    1221728.1    12375.198    1237499.2    1255781.6 
Loop time of 57.0717 on 1 procs for 1000 steps with 6016 atoms

Pair  time (%) = 54.7652 (95.9587)
Bond  time (%) = 0.328837 (0.576182)
Neigh time (%) = 0 (0)
Comm  time (%) = 0.323882 (0.5675)
Outpt time (%) = 5.96046e-05 (0.000104438)
Other time (%) = 1.65365 (2.8975)

Nlocal:    6016 ave 6016 max 6016 min
Histogram: 1 0 0 0 0 0 0 0 0 0
Nghost:    13504 ave 13504 max 13504 min
Histogram: 1 0 0 0 0 0 0 0 0 0
Neighs:    692096 ave 692096 max 692096 min
Histogram: 1 0 0 0 0 0 0 0 0 0

Total # of neighbors = 692096
Ave neighs/atom = 115.043
Ave special neighs/atom = 0.595745
Neighbor list builds = 0
Dangerous builds = 0

timestep	0.1
run		${Nnvt}
run		1000
Memory usage per processor = 14.6612 Mbytes
Step Temp E_pair E_mol TotEng Press 
    1000    189.40229    1221728.1    12375.198    1237499.2    1255781.6 
    2000    15205.742    54151.906    11956.377    338740.73    135131.37 
Loop time of 59.2208 on 1 procs for 1000 steps with 6016 atoms

Pair  time (%) = 56.3316 (95.1212)
Bond  time (%) = 0.330212 (0.557594)
Neigh time (%) = 0.489776 (0.827033)
Comm  time (%) = 0.415778 (0.702081)
Outpt time (%) = 5.10216e-05 (8.61548e-05)
Other time (%) = 1.65344 (2.79199)

Nlocal:    6016 ave 6016 max 6016 min
Histogram: 1 0 0 0 0 0 0 0 0 0
Nghost:    12753 ave 12753 max 12753 min
Histogram: 1 0 0 0 0 0 0 0 0 0
Neighs:    660464 ave 660464 max 660464 min
Histogram: 1 0 0 0 0 0 0 0 0 0

Total # of neighbors = 660464
Ave neighs/atom = 109.785
Ave special neighs/atom = 0.595745
Neighbor list builds = 18
Dangerous builds = 0

timestep	1
run		${Nnvt}
run		1000
Memory usage per processor = 14.6612 Mbytes
Step Temp E_pair E_mol TotEng Press 
    2000    15205.742    54151.906    11956.377    338740.73    135131.37 
    3000    311.18481   -42877.908    5350.4737   -31948.024    1946.7385 
Loop time of 54.0595 on 1 procs for 1000 steps with 6016 atoms

Pair  time (%) = 50.6597 (93.711)
Bond  time (%) = 0.330742 (0.611811)
Neigh time (%) = 1.01245 (1.87284)
Comm  time (%) = 0.469221 (0.867972)
Outpt time (%) = 5.53131e-05 (0.000102319)
Other time (%) = 1.58732 (2.93624)

Nlocal:    6016 ave 6016 max 6016 min
Histogram: 1 0 0 0 0 0 0 0 0 0
Nghost:    11903 ave 11903 max 11903 min
Histogram: 1 0 0 0 0 0 0 0 0 0
Neighs:    609906 ave 609906 max 609906 min
Histogram: 1 0 0 0 0 0 0 0 0 0

Total # of neighbors = 609906
Ave neighs/atom = 101.381
Ave special neighs/atom = 0.595745
Neighbor list builds = 37
Dangerous builds = 0

timestep	2
run		${Nnvt}
run		1000
Memory usage per processor = 14.6612 Mbytes
Step Temp E_pair E_mol TotEng Press 
    3000    311.18481   -42877.908    5350.4737   -31948.024    1946.7385 
    4000    306.94471   -46429.905    4004.3247   -36922.193    602.70619 
Loop time of 54.1068 on 1 procs for 1000 steps with 6016 atoms

Pair  time (%) = 50.5932 (93.5062)
Bond  time (%) = 0.333699 (0.616742)
Neigh time (%) = 1.11039 (2.05222)
Comm  time (%) = 0.48049 (0.88804)
Outpt time (%) = 5.57899e-05 (0.000103111)
Other time (%) = 1.58897 (2.93673)

Nlocal:    6016 ave 6016 max 6016 min
Histogram: 1 0 0 0 0 0 0 0 0 0
Nghost:    12090 ave 12090 max 12090 min
Histogram: 1 0 0 0 0 0 0 0 0 0
Neighs:    619275 ave 619275 max 619275 min
Histogram: 1 0 0 0 0 0 0 0 0 0

Total # of neighbors = 619275
Ave neighs/atom = 102.938
Ave special neighs/atom = 0.595745
Neighbor list builds = 41
Dangerous builds = 0

timestep	5
run		${Nnvt}
run		1000
Memory usage per processor = 14.6612 Mbytes
Step Temp E_pair E_mol TotEng Press 
    4000    306.94471   -46429.905    4004.3247   -36922.193    602.70619 
    5000    299.16236    -47949.97    3215.9249   -39370.192      189.773 
Loop time of 57.4606 on 1 procs for 1000 steps with 6016 atoms

Pair  time (%) = 51.9936 (90.4855)
Bond  time (%) = 0.336419 (0.585477)
Neigh time (%) = 2.71898 (4.7319)
Comm  time (%) = 0.758027 (1.31921)
Outpt time (%) = 5.26905e-05 (9.16984e-05)
Other time (%) = 1.65361 (2.87782)

Nlocal:    6016 ave 6016 max 6016 min
Histogram: 1 0 0 0 0 0 0 0 0 0
Nghost:    12312 ave 12312 max 12312 min
Histogram: 1 0 0 0 0 0 0 0 0 0
Neighs:    633167 ave 633167 max 633167 min
Histogram: 1 0 0 0 0 0 0 0 0 0

Total # of neighbors = 633167
Ave neighs/atom = 105.247
Ave special neighs/atom = 0.595745
Neighbor list builds = 99
Dangerous builds = 0

unfix 		thermo
fix 		thermo all langevin 303 303 1000 9 omega yes zero yes

# compute and average area and volume per lipid:
variable	lipArea equal lx*ly/(${nLips}/2)
variable	lipArea equal lx*ly/(128/2)
fix		lipArea lip ave/time ${Ne} ${Nthe_e} ${Nthe} v_lipArea
fix		lipArea lip ave/time 10 ${Nthe_e} ${Nthe} v_lipArea
fix		lipArea lip ave/time 10 1000 ${Nthe} v_lipArea
fix		lipArea lip ave/time 10 1000 10000 v_lipArea
variable	lipVol equal (vol-(${nWats}*${watVol}))/${nLips}
variable	lipVol equal (vol-(4096*${watVol}))/${nLips}
variable	lipVol equal (vol-(4096*30))/${nLips}
variable	lipVol equal (vol-(4096*30))/128
fix		lipVol lip ave/time ${Ne} ${Nthe_e} ${Nthe} v_lipVol
fix		lipVol lip ave/time 10 ${Nthe_e} ${Nthe} v_lipVol
fix		lipVol lip ave/time 10 1000 ${Nthe} v_lipVol
fix		lipVol lip ave/time 10 1000 10000 v_lipVol

# compute and average pressure:
variable	P equal press
fix 		P all ave/time ${Ne} ${Nthe_e} ${Nthe} v_P
fix 		P all ave/time 10 ${Nthe_e} ${Nthe} v_P
fix 		P all ave/time 10 1000 ${Nthe} v_P
fix 		P all ave/time 10 1000 10000 v_P

# compute and average total (translational + rotational) temperature:
compute 	tempTot all temp/sphere dof all
fix 		tempTot all ave/time ${Ne} ${Nthe_e} ${Nthe} c_tempTot
fix 		tempTot all ave/time 10 ${Nthe_e} ${Nthe} c_tempTot
fix 		tempTot all ave/time 10 1000 ${Nthe} c_tempTot
fix 		tempTot all ave/time 10 1000 10000 c_tempTot
#compute_modify  tempTot extra 3 # default -> no effect

# compute and average rotational temperature:
compute 	tempRot all temp/sphere dof rotate
fix 		tempRot all ave/time ${Ne} ${Nthe_e} ${Nthe} c_tempRot
fix 		tempRot all ave/time 10 ${Nthe_e} ${Nthe} c_tempRot
fix 		tempRot all ave/time 10 1000 ${Nthe} c_tempRot
fix 		tempRot all ave/time 10 1000 10000 c_tempRot

thermo_style custom step press f_P temp f_tempTot f_tempRot f_lipArea f_lipVol
#thermo_modify   temp tempTot
thermo		${Nthe}
thermo		10000

# equilibrate:
timestep	10
run		${Nnvt}
run		1000
Memory usage per processor = 14.6612 Mbytes
Step Press P Temp tempTot tempRot lipArea lipVol 
    5000      189.773            0    299.16236            0            0            0            0 
    6000    110.08646            0    303.97177            0            0            0            0 
Loop time of 63.862 on 1 procs for 1000 steps with 6016 atoms

Pair  time (%) = 54.8281 (85.8539)
Bond  time (%) = 0.340972 (0.533919)
Neigh time (%) = 5.75998 (9.01941)
Comm  time (%) = 1.25829 (1.97032)
Outpt time (%) = 7.24792e-05 (0.000113494)
Other time (%) = 1.67465 (2.62229)

Nlocal:    6016 ave 6016 max 6016 min
Histogram: 1 0 0 0 0 0 0 0 0 0
Nghost:    12449 ave 12449 max 12449 min
Histogram: 1 0 0 0 0 0 0 0 0 0
Neighs:    651131 ave 651131 max 651131 min
Histogram: 1 0 0 0 0 0 0 0 0 0

Total # of neighbors = 651131
Ave neighs/atom = 108.233
Ave special neighs/atom = 0.595745
Neighbor list builds = 201
Dangerous builds = 0
run		${Nnvt}
run		1000
Memory usage per processor = 14.6612 Mbytes
Step Press P Temp tempTot tempRot lipArea lipVol 
    6000    110.08646            0    303.97177            0            0            0            0 
    7000   -167.18327            0    301.09195            0            0            0            0 
Loop time of 63.9978 on 1 procs for 1000 steps with 6016 atoms

Pair  time (%) = 54.9061 (85.7938)
Bond  time (%) = 0.343062 (0.536053)
Neigh time (%) = 5.80262 (9.06692)
Comm  time (%) = 1.27034 (1.98498)
Outpt time (%) = 7.10487e-05 (0.000111018)
Other time (%) = 1.67557 (2.61816)

Nlocal:    6016 ave 6016 max 6016 min
Histogram: 1 0 0 0 0 0 0 0 0 0
Nghost:    12429 ave 12429 max 12429 min
Histogram: 1 0 0 0 0 0 0 0 0 0
Neighs:    650337 ave 650337 max 650337 min
Histogram: 1 0 0 0 0 0 0 0 0 0

Total # of neighbors = 650337
Ave neighs/atom = 108.101
Ave special neighs/atom = 0.595745
Neighbor list builds = 203
Dangerous builds = 0
run		${Nnvt}
run		1000
Memory usage per processor = 14.6612 Mbytes
Step Press P Temp tempTot tempRot lipArea lipVol 
    7000   -167.18327            0    301.09195            0            0            0            0 
    8000  0.032129242            0    298.24864            0            0            0            0 
Loop time of 63.9167 on 1 procs for 1000 steps with 6016 atoms

Pair  time (%) = 54.8142 (85.7587)
Bond  time (%) = 0.343966 (0.538147)
Neigh time (%) = 5.81002 (9.08998)
Comm  time (%) = 1.27145 (1.98923)
Outpt time (%) = 7.29561e-05 (0.000114142)
Other time (%) = 1.67705 (2.62381)

Nlocal:    6016 ave 6016 max 6016 min
Histogram: 1 0 0 0 0 0 0 0 0 0
Nghost:    12519 ave 12519 max 12519 min
Histogram: 1 0 0 0 0 0 0 0 0 0
Neighs:    650868 ave 650868 max 650868 min
Histogram: 1 0 0 0 0 0 0 0 0 0

Total # of neighbors = 650868
Ave neighs/atom = 108.189
Ave special neighs/atom = 0.595745
Neighbor list builds = 203
Dangerous builds = 0
run		${Nnvt}
run		1000
Memory usage per processor = 14.6612 Mbytes
Step Press P Temp tempTot tempRot lipArea lipVol 
    8000  0.032129242            0    298.24864            0            0            0            0 
    9000   -127.83923            0    308.95014            0            0            0            0 
Loop time of 63.9363 on 1 procs for 1000 steps with 6016 atoms

Pair  time (%) = 54.8156 (85.7346)
Bond  time (%) = 0.345011 (0.539616)
Neigh time (%) = 5.82177 (9.10557)
Comm  time (%) = 1.27741 (1.99794)
Outpt time (%) = 7.03335e-05 (0.000110005)
Other time (%) = 1.67649 (2.62212)

Nlocal:    6016 ave 6016 max 6016 min
Histogram: 1 0 0 0 0 0 0 0 0 0
Nghost:    12470 ave 12470 max 12470 min
Histogram: 1 0 0 0 0 0 0 0 0 0
Neighs:    648926 ave 648926 max 648926 min
Histogram: 1 0 0 0 0 0 0 0 0 0

Total # of neighbors = 648926
Ave neighs/atom = 107.867
Ave special neighs/atom = 0.595745
Neighbor list builds = 204
Dangerous builds = 0
run		${Nnvt}
run		1000
Memory usage per processor = 14.6612 Mbytes
Step Press P Temp tempTot tempRot lipArea lipVol 
    9000   -127.83923            0    308.95014            0            0            0            0 
   10000    13.692674            0    301.81931            0            0            0            0 
Loop time of 63.9168 on 1 procs for 1000 steps with 6016 atoms

Pair  time (%) = 54.8088 (85.7502)
Bond  time (%) = 0.344863 (0.539549)
Neigh time (%) = 5.79678 (9.06926)
Comm  time (%) = 1.2732 (1.99196)
Outpt time (%) = 0.017339 (0.0271274)
Other time (%) = 1.67583 (2.62189)

Nlocal:    6016 ave 6016 max 6016 min
Histogram: 1 0 0 0 0 0 0 0 0 0
Nghost:    12554 ave 12554 max 12554 min
Histogram: 1 0 0 0 0 0 0 0 0 0
Neighs:    649974 ave 649974 max 649974 min
Histogram: 1 0 0 0 0 0 0 0 0 0

Total # of neighbors = 649974
Ave neighs/atom = 108.041
Ave special neighs/atom = 0.595745
Neighbor list builds = 203
Dangerous builds = 0

fix		baro all press/berendsen aniso 1 1 1000 couple xy modulus 21740

# compute and average surface tension (gamma) per monolayer:
variable	gamma equal (0.5*lz*(pzz-0.5*(pxx+pyy))/3)*${atmA__in__mN_m}
variable	gamma equal (0.5*lz*(pzz-0.5*(pxx+pyy))/3)*0.01013
fix	gamma all ave/time ${Ne} ${Nthe_e} ${Nthe} v_gamma file gamma.dat
fix	gamma all ave/time 10 ${Nthe_e} ${Nthe} v_gamma file gamma.dat
fix	gamma all ave/time 10 1000 ${Nthe} v_gamma file gamma.dat
fix	gamma all ave/time 10 1000 10000 v_gamma file gamma.dat

# compute and average interface area (bilayer assumed parallel to xy plane):
variable	xyArea equal lx*ly
fix 		xyArea all ave/time 1 1 ${Ne} v_xyArea file xyArea.dat
fix 		xyArea all ave/time 1 1 10 v_xyArea file xyArea.dat

# compute and average box volume:
variable	boxVol equal vol
fix 		boxVol all ave/time 1 1 ${Ne} v_boxVol file boxVol.dat
fix 		boxVol all ave/time 1 1 10 v_boxVol file boxVol.dat

restart		${Nres} restart
restart		110000 restart

run 		${Nnpt}
run 		100000
Memory usage per processor = 14.6612 Mbytes
Step Press P Temp tempTot tempRot lipArea lipVol 
   10000    13.692674            0    301.81931            0            0            0            0 
   20000    85.353869  -0.93481294    297.77884    302.99303    303.20684    71.210931    1299.0471 
   30000    100.47066     2.170856    302.37763    303.15003    303.08887    70.188405    1297.5149 
   40000       32.116    1.1571343    301.18098     303.3097      303.486    70.478583    1296.8678 
   50000    8.8286609    1.5719867    303.66133    303.32865    303.49731    70.542104     1296.789 
   60000    -33.95994   -1.0305907    302.41506    303.27534    303.38835    70.442412     1297.589 
   70000   -35.862319   0.58673019    303.33348    303.06682    302.97799    70.232892     1295.513 
   80000   -38.736517   0.69955827    304.73713    303.10418    303.28248    69.737931    1293.7534 
   90000   -47.066145    2.1768546    306.32687    303.26135    303.43343    70.019878    1294.5317 
  100000   -1.9113495   0.92301528    310.20205    302.85032    302.91694    69.504044    1294.8311 
  110000    1.3962386  -0.79742517    303.59017    302.86427     302.9405    69.209538    1293.1876 
Loop time of 6582.95 on 1 procs for 100000 steps with 6016 atoms

Pair  time (%) = 5633.05 (85.5704)
Bond  time (%) = 43.7527 (0.664636)
Neigh time (%) = 584.642 (8.88115)
Comm  time (%) = 137.461 (2.08814)
Outpt time (%) = 0.18861 (0.00286512)
Other time (%) = 183.85 (2.79282)

Nlocal:    6016 ave 6016 max 6016 min
Histogram: 1 0 0 0 0 0 0 0 0 0
Nghost:    12800 ave 12800 max 12800 min
Histogram: 1 0 0 0 0 0 0 0 0 0
Neighs:    664589 ave 664589 max 664589 min
Histogram: 1 0 0 0 0 0 0 0 0 0

Total # of neighbors = 664589
Ave neighs/atom = 110.47
Ave special neighs/atom = 0.595745
Neighbor list builds = 20338
Dangerous builds = 0


